Normalized Data/p02_1030_tsplib0_normalized.txt
NAME: p02_1030_tsplib0_NORMALIZED
BEST_KNOWN: 0
COMMENT: 0
DIMENSION: 76
CAPACITY: 100
EDGE_WEIGHT_FORMAT: FUNCTION
EDGE_WEIGHT_TYPE: EXACT_2D
NODE_COORD_SECTION
1 0 0
2 -18 -18
3 -4 -14
4 -19 5
5 5 -5
6 15 -20
7 -7 -6
8 10 10
9 15 5
10 -14 19
11 0 26
12 15 25
13 -5 11
14 22 -5
15 22 17
16 22 -16
17 -19 -4
18 -7 4
19 -31 16
20 22 8
21 26 -26
22 4 -27
23 -14 -27
24 -29 -12
25 -33 3
26 -23 24
27 1 6
28 15 -6
29 -5 -24
30 12 -14
31 3 -14
32 -9 36
33 -18 13
34 -14 -11
35 10 0
36 15 10
37 14 -30
38 20 -25
39 7 26
40 -10 20
41 -10 10
42 -28 -23
43 -25 -26
44 -24 -21
45 -19 8
46 10 -10
47 11 2
48 10 -25
49 8 -19
50 -28 -2
51 -25 16
52 -11 -1
53 14 -2
54 15 17
55 27 1
56 -30 30
57 -34 -15
58 25 -13
59 0 20
60 30 24
61 24 -36
62 -4 -34
63 -10 -20
64 -20 -10
65 -25 -35
66 10 30
67 17 32
68 5 2
69 -2 -7
70 10 -36
71 26 -32
72 19 -35
73 -5 20
74 -13 -16
75 0 -20
76 0 -3
DEMAND_SECTION
1 0
2 26
3 17
4 14
5 20
6 27
7 27
8 19
9 12
10 13
11 10
12 25
13 17
14 19
15 20
16 23
17 15
18 11
19 20
20 26
21 20
22 11
23 22
24 22
25 21
26 25
27 24
28 10
29 25
30 12
31 11
32 26
33 25
34 26
35 14
36 26
37 19
38 25
39 19
40 19
41 26
42 13
43 10
44 22
45 22
46 27
47 15
48 19
49 18
50 26
51 22
52 22
53 22
54 11
55 27
56 24
57 24
58 15
59 23
60 17
61 16
62 27
63 15
64 15
65 15
66 16
67 19
68 26
69 11
70 29
71 27
72 28
73 27
74 26
75 29
76 10
DEPOT_SECTION
1
-1
EOF