Normalized Data/p02_1030_tsplib0_normalized.sol
75 -3 24 49 16 51 -4 45 27 52 34 -6 2 74 30 75 -7 35 67 -12 9 39 72 26 -13 54 19 8 46 -14 59 66 11 53 -17 44 32 40 -21 69 36 47 48 -25 55 18 50 -29 5 20 15 57 -33 43 1 73 -37 70 60 71 -38 65 31 10 58 -62 22 61 28 68 -63 23 56 41 42 64 0 





OBJ=
1128.896
BEST_KNOWN=
0.000